(declare-fun v0 () Bool)
(declare-fun v2 () Bool)
(declare-fun v4 () Bool)
(declare-fun v5 () Bool)
(declare-fun i4 () Int)
(declare-fun i7 () Int)
(declare-fun i12 () Int)
(declare-fun v7 () Bool)
(push)
(assert (= (=> (= v4 (> i7 i4)) (and v2 (= v0 v0))) (= v2 v7)))
(check-sat)
(push)
(assert (= (> (+ i7 811) 811) v5))
(pop)
(pop)
(assert (> i7 i12))
(push)
(check-sat)
